20
1 0 9
2 0 7
3 0 6
3 2 3
4 1 9
5 2 10
6 3 3
6 5 6
7 0 1
7 2 4
7 5 5
7 6 4
8 1 1
8 2 5
8 7 7
9 2 4
9 4 4
9 6 2
10 0 8
10 1 2
10 2 7
10 4 6
10 5 9
10 6 4
10 9 2
11 1 6
11 2 8
11 3 7
11 4 7
11 9 1
12 0 6
12 2 5
12 3 8
12 7 8
12 8 1
12 9 6
13 1 9
13 3 10
13 4 10
13 9 4
13 10 1
13 12 7
14 0 10
14 1 1
14 2 4
14 6 10
14 7 2
14 8 9
15 4 4
15 5 1
15 7 1
15 9 8
15 10 9
15 11 2
15 12 10
16 0 8
16 3 4
16 4 3
16 5 10
16 8 6
16 9 10
16 11 2
16 14 10
16 15 4
17 0 6
17 1 7
17 3 4
17 4 10
17 7 5
17 11 9
17 12 7
17 13 5
17 15 2
17 16 4
18 0 4
18 1 1
18 5 3
18 8 6
18 10 8
18 12 6
18 14 9
18 15 8
18 16 9
19 2 10
19 4 7
19 7 9
19 14 4
